S2.pkl
Stress_time: 10.25
STRESS_0: 730.7936507936507
STRESS_1: 755.2747252747251
STRESS_2: 767.2170686456402
STRESS_3: 722.2822299651568
STRESS_4: 805.8512720156556
STRESS_5: 790.3809523809524
STRESS_6: 816.3095238095237
STRESS_7: 811.0958904109589
STRESS_8: 795.8108108108107
STRESS_9: 810.3718199608611

S3.pkl
Stress_time: 10.666666666666666
STRESS_0: 509.47496947496955
STRESS_1: 634.6850998463901
STRESS_2: 729.347442680776
STRESS_3: 674.088669950739
STRESS_4: 803.3072407045009
STRESS_5: 816.8055555555555
STRESS_6: 635.2688172043011
STRESS_7: 639.0372670807454
STRESS_8: 750.2893309222422
STRESS_9: 793.5714285714284

S4.pkl
Stress_time: 10.583333333333334
STRESS_0: 754.9084249084249
STRESS_1: 826.4185110663983
STRESS_2: 787.1235521235521
STRESS_3: 780.6203007518797
STRESS_4: 834.5271629778671
STRESS_5: 735.6071428571429
STRESS_6: 732.0178571428571
STRESS_7: 702.9591836734694
STRESS_8: 706.4455782312925
STRESS_9: 725.9964726631393

S5.pkl
Stress_time: 10.75
STRESS_0: 605.2135493372607
STRESS_1: 650.6122448979593
STRESS_2: 640.0931677018634
STRESS_3: 649.8901098901099
STRESS_4: 703.1122448979592
STRESS_5: 702.0068027210883
STRESS_6: 664.8214285714286
STRESS_7: 719.3205574912893
STRESS_8: 716.2306368330466
STRESS_9: 679.4745484400656

S6.pkl
Stress_time: 10.833333333333334
STRESS_0: 708.5714285714287
STRESS_1: 732.363315696649
STRESS_2: 769.7744360902255
STRESS_3: 796.969111969112
STRESS_4: 763.937728937729
STRESS_5: 815.2579365079365
STRESS_6: 733.1785714285713
STRESS_7: 767.1428571428571
STRESS_8: 750.8137432188065
STRESS_9: 757.8388278388278
STRESS_10: 817.1825396825396

S7.pkl
Stress_time: 10.666666666666666
STRESS_0: 665.7784911717496
STRESS_1: 750.7956600361662
STRESS_2: 755.8812615955474
STRESS_3: 783.3523809523808
STRESS_4: 833.265306122449
STRESS_5: 704.6127366609294
STRESS_6: 558.6253369272237
STRESS_7: 702.5850340136053
STRESS_8: 676.4367816091955
STRESS_9: 733.375

S8.pkl
Stress_time: 11.166666666666666
STRESS_0: 627.3984962406015
STRESS_1: 652.4444444444443
STRESS_2: 690.7653061224488
STRESS_3: 671.2662337662338
STRESS_4: 701.3775510204082
STRESS_5: 690.7058823529412
STRESS_6: 654.8194662480377
STRESS_7: 644.8351648351648
STRESS_8: 642.3136645962733
STRESS_9: 664.5585874799358
STRESS_10: 658.1219903691813

S9.pkl
Stress_time: 10.75
STRESS_0: 689.7508305647841
STRESS_1: 717.0209059233448
STRESS_2: 754.2673992673994
STRESS_3: 740.4642857142858
STRESS_4: 721.5156794425087
STRESS_5: 772.0488721804512
STRESS_6: 771.6541353383458
STRESS_7: 792.5675675675676
STRESS_8: 788.9333333333333
STRESS_9: 793.1274131274132

S10.pkl
Stress_time: 12.083333333333334
STRESS_0: 465.63554555680537
STRESS_1: 531.6344916344916
STRESS_2: 539.5019659239844
STRESS_3: 589.0571428571429
STRESS_4: 563.5374149659864
STRESS_5: 602.6239067055393
STRESS_6: 578.515406162465
STRESS_7: 528.7244897959183
STRESS_8: 554.1522029372497
STRESS_9: 574.521497919556
STRESS_10: 601.2390670553935
STRESS_11: 595.1515151515151

S11.pkl
Stress_time: 11.333333333333334
STRESS_0: 449.67532467532465
STRESS_1: 469.5238095238095
STRESS_2: 472.6628571428572
STRESS_3: 480.2322880371661
STRESS_4: 509.1625615763547
STRESS_5: 509.50738916256154
STRESS_6: 491.4521841794569
STRESS_7: 459.81173864894794
STRESS_8: 475.6336405529953
STRESS_9: 490.2738095238095
STRESS_10: 493.34523809523813

S13.pkl
Stress_time: 11.066666666666666
STRESS_0: 521.8836915297093
STRESS_1: 505.9218559218559
STRESS_2: 505.3601953601954
STRESS_3: 540.7922077922078
STRESS_4: 570.4438280166435
STRESS_5: 595.945165945166
STRESS_6: 493.1666666666667
STRESS_7: 541.6644823066842
STRESS_8: 607.9234167893962
STRESS_9: 597.7842565597667
STRESS_10: 640.5376344086023

S14.pkl
Stress_time: 11.25
STRESS_0: 425.65262076053443
STRESS_1: 478.6635944700461
STRESS_2: 444.1890440386681
STRESS_3: 438.10924369747903
STRESS_4: 478.09907834101386
STRESS_5: 483.8524590163934
STRESS_6: 429.4824016563147
STRESS_7: 491.0595238095238
STRESS_8: 482.7642276422764
STRESS_9: 517.8822055137845
STRESS_10: 554.8998664886516

S15.pkl
Stress_time: 11.433333333333334
STRESS_0: 649.6075353218209
STRESS_1: 676.3382594417077
STRESS_2: 706.8674698795181
STRESS_3: 687.0265780730897
STRESS_4: 701.5816326530612
STRESS_5: 745.0994575045208
STRESS_6: 716.1672473867594
STRESS_7: 701.1764705882352
STRESS_8: 729.0652557319224
STRESS_9: 725.6790123456789
STRESS_10: 755.1465201465202

S16.pkl
Stress_time: 11.216690476190475
STRESS_0: 433.1491136600626
STRESS_1: 462.5669642857143
STRESS_2: 471.79428571428576
STRESS_3: 503.6385836385836
STRESS_4: 523.8685208596713
STRESS_5: 516.3533834586466
STRESS_6: 408.94581280788174
STRESS_7: 422.66326530612247
STRESS_8: 456.98781838316717
STRESS_9: 473.91999999999996
STRESS_10: 493.6309523809523

S17.pkl
Stress_time: 12.05
STRESS_0: 514.1863354037266
STRESS_1: 576.2135922330098
STRESS_2: 557.1428571428571
STRESS_3: 566.748299319728
STRESS_4: 597.0418470418471
STRESS_5: 591.5714285714284
STRESS_6: 584.8231966053748
STRESS_7: 447.8679653679654
STRESS_8: 552.6702269692923
STRESS_9: 468.54893138357716
STRESS_10: 450.16233766233773
STRESS_11: 517.6149068322981

